NAME : rc201.1.6546999.tour
COMMENT : Length = 6546999
COMMENT : Found by LKH [Keld Helsgaun] Tue May  2 05:20:28 2017
TYPE : TOUR
DIMENSION : 29
TOUR_SECTION
1
20
2
12
18
15
24
19
4
8
6
3
22
26
25
14
13
7
5
21
17
29
16
10
11
9
28
27
23
-1
EOF
